
******************************************************************************
This program contains Ipopt, a library for large-scale nonlinear optimization.
 Ipopt is released as open source code under the Eclipse Public License (EPL).
         For more information visit http://projects.coin-or.org/Ipopt

This version of Ipopt was compiled from source code available at
    https://github.com/IDAES/Ipopt as part of the Institute for the Design of
    Advanced Energy Systems Process Systems Engineering Framework (IDAES PSE
    Framework) Copyright (c) 2018-2019. See https://github.com/IDAES/idaes-pse.

This version of Ipopt was compiled using HSL, a collection of Fortran codes
    for large-scale scientific computation.  All technical papers, sales and
    publicity material resulting from use of the HSL codes within IPOPT must
    contain the following acknowledgement:
        HSL, a collection of Fortran codes for large-scale scientific
        computation. See http://www.hsl.rl.ac.uk.
******************************************************************************

This is Ipopt version 3.13.2, running with linear solver ma27.

Number of nonzeros in equality constraint Jacobian...:      808
Number of nonzeros in inequality constraint Jacobian.:        0
Number of nonzeros in Lagrangian Hessian.............:      702

Total number of variables............................:      351
                     variables with only lower bounds:      108
                variables with lower and upper bounds:      189
                     variables with only upper bounds:        0
Total number of equality constraints.................:      350
Total number of inequality constraints...............:        0
        inequality constraints with only lower bounds:        0
   inequality constraints with lower and upper bounds:        0
        inequality constraints with only upper bounds:        0

iter    objective    inf_pr   inf_du lg(mu)  ||d||  lg(rg) alpha_du alpha_pr  ls
   0  0.0000000e+00 8.66e-01 1.42e-14  -1.0 0.00e+00    -  0.00e+00 0.00e+00   0
   1  1.9232280e+00 1.46e+00 1.09e+05  -1.0 1.28e+05    -  5.16e-01 7.08e-01h  1
   2  1.9627487e+00 1.41e+00 1.05e+05  -1.0 4.15e+04    -  7.84e-01 2.54e-02h  1
   3  2.0537348e+00 1.34e+00 9.99e+04  -1.0 2.06e+05    -  7.92e-01 4.98e-02h  1
   4  6.5761929e+00 1.66e-01 4.38e+04  -1.0 1.99e+05    -  7.73e-01 5.47e-01h  1
   5  1.7188177e+01 1.10e-02 1.67e+03  -1.0 1.07e+05    -  1.27e-01 9.90e-01h  1
   6  1.8053356e+01 1.78e-04 1.03e+03  -1.0 6.68e+03    -  8.64e-01 9.90e-01h  1
   7  1.8077169e+01 3.51e-06 4.73e+04  -1.0 1.78e+02    -  9.32e-01 9.90e-01h  1
   8  1.8305628e+01 4.54e-06 6.36e+07  -1.0 1.67e+03    -  2.11e-01 9.90e-01H  1
   9  1.8469289e+01 2.32e-06 1.02e+09  -1.0 1.19e+03    -  8.66e-01 9.90e-01H  1
iter    objective    inf_pr   inf_du lg(mu)  ||d||  lg(rg) alpha_du alpha_pr  ls
  10  1.8469900e+01 2.32e-06 7.62e+11  -1.0 2.26e+03    -  9.36e-01 1.93e-03h 10
  11  1.8470315e+01 2.32e-06 1.57e+12  -1.0 3.08e+03    -  9.90e-01 9.67e-04h 11
  12  1.8470730e+01 2.32e-06 2.37e+12  -1.0 3.08e+03    -  9.81e-01 9.67e-04h 11
  13  1.8471153e+01 2.32e-06 3.19e+12  -1.0 3.13e+03    -  1.00e+00 9.67e-04h 11
  14  1.8471568e+01 2.32e-06 3.98e+12  -1.0 3.08e+03    -  9.69e-01 9.67e-04h 11
  15  1.8471989e+01 2.32e-06 4.80e+12  -1.0 3.12e+03    -  1.00e+00 9.67e-04h 11
  16  1.8472404e+01 2.32e-06 5.59e+12  -1.0 3.08e+03    -  9.71e-01 9.67e-04h 11
  17  1.8472823e+01 2.31e-06 6.41e+12  -1.0 3.11e+03    -  1.00e+00 9.67e-04h 11
  18  1.8473238e+01 2.31e-06 7.20e+12  -1.0 3.08e+03    -  9.74e-01 9.67e-04h 11
  19  1.8473656e+01 2.31e-06 8.02e+12  -1.0 3.10e+03    -  1.00e+00 9.67e-04h 11
iter    objective    inf_pr   inf_du lg(mu)  ||d||  lg(rg) alpha_du alpha_pr  ls
  20  1.8901008e+01 1.17e-03 6.91e+10  -1.0 3.07e+03    -  9.77e-01 9.90e-01w  1
In iteration 20, 27 Slacks too small, adjusting variable bounds
  21  1.8905245e+01 1.34e-05 8.27e+11  -1.0 3.01e+01    -  1.00e+00 9.90e-01w  1
  22  1.8905498e+01 1.19e-09 7.81e-03  -1.0 1.79e+00    -  1.00e+00 1.00e+00h  1
  23  1.8892181e+01 1.06e-06 8.83e+12  -9.0 7.66e+03    -  9.96e-01 1.23e-02f  7
  24  1.8879072e+01 2.08e-06 8.76e+12  -9.0 7.39e+03    -  9.96e-01 1.25e-02f  7
  25  1.8875846e+01 2.14e-06 8.73e+12  -9.0 7.09e+03    -  1.00e+00 3.22e-03f  9
  26  1.8874239e+01 2.15e-06 8.71e+12  -9.0 6.87e+03    -  1.00e+00 1.65e-03f 10
  27  1.8872635e+01 2.16e-06 8.70e+12  -9.0 6.67e+03    -  1.00e+00 1.70e-03f 10
  28  1.8064183e+01 5.11e-03 9.25e+11  -9.0 6.49e+03    -  1.00e+00 8.94e-01f  1
  29  1.8058510e+01 2.46e-03 4.45e+11  -9.0 7.99e+01    -  1.00e+00 5.19e-01h  1
In iteration 29, 1 Slack too small, adjusting variable bound
iter    objective    inf_pr   inf_du lg(mu)  ||d||  lg(rg) alpha_du alpha_pr  ls
  30  1.8058510e+01 2.46e-03 4.45e+11  -9.0 1.43e+01    -  5.23e-07 9.83e-07h  1
  31  1.8056580e+01 1.71e-06 3.59e-01  -9.0 1.42e+01    -  9.88e-01 1.00e+00h  1
  32  1.8056580e+01 5.64e-11 1.80e-04  -9.0 8.85e-05    -  9.99e-01 1.00e+00h  1
  33  1.8056580e+01 7.53e-11 1.49e-11  -9.0 7.38e-06    -  1.00e+00 1.00e+00h  1

Number of Iterations....: 33

                                   (scaled)                 (unscaled)
Objective...............:   1.8056580167949488e+01    1.8056580167949488e+01
Dual infeasibility......:   1.4940747564262057e-11    1.4940747564262057e-11
Constraint violation....:   7.5287776013510666e-11    7.5287776013510666e-11
Complementarity.........:   9.0909129640573171e-10    9.0909129640573171e-10
Overall NLP error.......:   7.5287776013510666e-11    9.0909129640573171e-10


Number of objective function evaluations             = 226
Number of objective gradient evaluations             = 34
Number of equality constraint evaluations            = 226
Number of inequality constraint evaluations          = 0
Number of equality constraint Jacobian evaluations   = 34
Number of inequality constraint Jacobian evaluations = 0
Number of Lagrangian Hessian evaluations             = 33
Total CPU secs in IPOPT (w/o function evaluations)   =      0.074
Total CPU secs in NLP function evaluations           =      1.789

EXIT: Optimal Solution Found.
